Minimize
  - 0.112 C0 + 10.4 C1 - 0.112 C2 + 10.4 C3 - 0.112 C4 + 10.4 C5 - 0.112 C6
   + 10.4 C7 - 0.112 C8 + 10.4 C9 - 1.12 C10 + 104 C11 + [ 0.02 C0 ^2
   + 2 C1 ^2 + 0.02 C2 ^2 + 2 C3 ^2 + 0.02 C4 ^2 + 2 C5 ^2 + 0.02 C6 ^2
   + 2 C7 ^2 + 0.02 C8 ^2 + 2 C9 ^2 + 0.2 C10 ^2 + 20 C11 ^2 + 0.4 C12 ^2
   + 0.4 C13 ^2 + 0.4 C14 ^2 + 0.4 C15 ^2 + 0.4 C16 ^2 ] / 2 
Subject To
 R0: - 0.4 C0 + 0.64 C1 + C2 = 0
 R1: - 1.04 C1 + C3 - 0.2 C12 = 0
 R2: - 0.4 C2 + 0.64 C3 + C4 = 0
 R3: - 1.04 C3 + C5 - 0.2 C13 = 0
 R4: - 0.4 C4 + 0.64 C5 + C6 = 0
 R5: - 1.04 C5 + C7 - 0.2 C14 = 0
 R6: - 0.4 C6 + 0.64 C7 + C8 = 0
 R7: - 1.04 C7 + C9 - 0.2 C15 = 0
 R8: - 0.4 C8 + 0.64 C9 + C10 = 0
 R9: - 1.04 C9 + C11 - 0.2 C16 = 0
 R10: C0 = 4.752709277330577
 R11: C1 = -4.609361023151513
Bounds
 C0 free
 C1 free
 C2 free
 C3 free
 C4 free
 C5 free
 C6 free
 C7 free
 C8 free
 C9 free
 C10 free
 C11 free
 -10 <= C12 <= 10
 -10 <= C13 <= 10
 -10 <= C14 <= 10
 -10 <= C15 <= 10
 -10 <= C16 <= 10
End
